Minimize
 obj:
Subject To
- 66 x1 + 49 x2 - 81 x3 + 73 x4 + 15 x5  <= 56
38 x1 - 26 x2 + 74 x3 + 48 x4 - 11 x5  <= -29
46 x1 - 48 x2 - 21 x3 + 55 x4 + 68 x5  <= 14
42 x1 - 84 x2 - 9 x3 - 78 x4 + 8 x5  <= -22
13 x1 + 91 x2 + 73 x3 - 68 x4 - 45 x5  <= -48
84 x1 - 13 x2 + 57 x3 - 75 x4 - 84 x5  <= 88
- 95 x1 - 70 x2 - 24 x3 - 69 x4 + 5 x5  <= 75
- 14 x1 - 47 x2 - 37 x3 + 53 x4 - 79 x5  <= 53
40 x1 - 57 x2 + 52 x3 - 18 x4 + 29 x5  <= 85
+ 37 x2 - 13 x3 + 21 x4 + 14 x5  <= 26
- 7 x1 + 26 x2 - 73 x3 + 92 x4 - 71 x5  <= -11
- 35 x1 + 90 x2 - 29 x3 - 20 x4 - 80 x5  <= 90
96 x1 + 14 x2 + 73 x3 - 70 x4 + 81 x5  <= 29
- 88 x1 + 90 x2 + 93 x3 + 56 x4 + 60 x5  <= 13
- 44 x1 + 92 x2 + 15 x3 - 13 x4 - 25 x5  <= 84
- 95 x1 + 53 x2 + 44 x3 + 17 x4 - 15 x5  <= 28
49 x1 - 87 x2 - 90 x3 + 54 x4 + 40 x5  <= -76
- 40 x1 - 86 x2 + 37 x3 - 27 x4 + 45 x5  <= -61
- 69 x1 - 68 x2 + 66 x3 + 9 x4 - 37 x5  <= 5
- 13 x1 - 58 x2 + 45 x3 - 100 x4 + 16 x5  <= -5
87 x1 + 52 x2 - 75 x3 - 98 x4  <= 68
70 x1 - 82 x2 + 71 x3 + 57 x4 + 15 x5  <= -81
65 x1 + 49 x2 + 81 x3 + 1 x4 + 76 x5  <= 92
12 x1 - 5 x2 - 17 x3 + 29 x4 + 75 x5  <= 16
- 56 x1 + 99 x2 - 69 x3 + 38 x4 + 40 x5  <= 97
29 x1 + 30 x2 + 68 x3 + 36 x4 + 93 x5  <= -34
59 x1 - 68 x2 + 72 x3 + 20 x4 - 16 x5  <= 96
73 x1 - 7 x2 - 51 x3 + 68 x4 + 68 x5  <= 47
- 74 x1 - 5 x2 + 56 x3 + 13 x5  <= -11
- 93 x1 - 34 x2 - 15 x3 + 16 x4 - 83 x5  <= 34
Bounds
x1 free
x2 free
x3 free
x4 free
x5 free
End
